p cnf 134 328
a 16 14 12 10 8 6 4 2 30 39 37 85 89 96 104 112 120 1 29 36 46 0
d 74 30 1 0
d 47 85 36 0
d 78 39 29 0
d 97 89 46 0
d 3 2 0
d 5 4 0
d 7 6 0
d 9 8 0
d 11 10 0
d 13 12 0
d 15 14 0
d 17 16 0
d 18 16 0
d 19 16 0
d 20 14 16 0
d 21 12 14 16 0
d 22 10 12 14 16 0
d 23 8 10 12 14 16 0
d 24 6 8 10 12 14 16 0
d 25 4 6 8 10 12 14 16 0
d 26 2 4 6 8 10 12 14 16 0
d 27 1 2 4 6 8 10 12 14 16 0
d 28 1 2 4 6 8 10 12 14 16 0
d 31 30 0
d 32 30 2 4 6 8 10 12 14 16 0
d 33 29 30 2 4 6 8 10 12 14 16 0
d 34 29 30 2 4 6 8 10 12 14 16 0
d 35 1 2 4 6 8 10 12 14 16 29 30 0
d 38 37 0
d 40 39 0
d 41 39 30 2 4 6 8 10 12 14 16 0
d 42 37 39 30 2 4 6 8 10 12 14 16 0
d 43 36 37 39 30 2 4 6 8 10 12 14 16 0
d 44 36 37 39 30 2 4 6 8 10 12 14 16 0
d 45 1 2 4 6 8 10 12 14 16 29 30 36 37 39 0
d 48 46 85 36 0
d 49 46 85 36 0
d 50 1 2 4 6 8 10 12 14 16 29 30 36 37 39 46 85 0
d 51 16 0
d 52 16 0
d 53 14 16 0
d 54 14 16 0
d 55 16 14 0
d 56 12 14 16 0
d 57 12 14 16 0
d 58 16 14 12 0
d 59 10 12 14 16 0
d 60 10 12 14 16 0
d 61 16 14 12 10 0
d 62 8 10 12 14 16 0
d 63 8 10 12 14 16 0
d 64 16 14 12 10 8 0
d 65 6 8 10 12 14 16 0
d 66 6 8 10 12 14 16 0
d 67 16 14 12 10 8 6 0
d 68 4 6 8 10 12 14 16 0
d 69 4 6 8 10 12 14 16 0
d 70 16 14 12 10 8 6 4 0
d 71 2 4 6 8 10 12 14 16 0
d 72 2 4 6 8 10 12 14 16 0
d 73 16 14 12 10 8 6 4 2 0
d 75 30 2 4 6 8 10 12 14 16 0
d 76 30 1 2 4 6 8 10 12 14 16 0
d 77 16 14 12 10 8 6 4 2 30 1 0
d 79 39 30 2 4 6 8 10 12 14 16 0
d 80 39 29 30 2 4 6 8 10 12 14 16 0
d 81 16 14 12 10 8 6 4 2 30 1 39 29 0
d 82 37 39 30 2 4 6 8 10 12 14 16 0
d 83 37 39 30 2 4 6 8 10 12 14 16 0
d 84 16 14 12 10 8 6 4 2 30 1 39 29 37 0
d 86 85 37 39 30 2 4 6 8 10 12 14 16 0
d 87 85 37 39 30 2 4 6 8 10 12 14 16 0
d 88 16 14 12 10 8 6 4 2 30 1 39 29 37 85 0
d 90 89 85 36 0
d 91 85 0
d 92 85 37 39 30 2 4 6 8 10 12 14 16 0
d 93 89 85 37 39 30 2 4 6 8 10 12 14 16 0
d 94 89 85 36 37 39 30 2 4 6 8 10 12 14 16 0
d 95 16 14 12 10 8 6 4 2 30 1 39 29 37 85 89 36 0
d 98 96 89 46 0
d 99 89 0
d 100 89 85 37 39 30 2 4 6 8 10 12 14 16 0
d 101 96 89 85 37 39 30 2 4 6 8 10 12 14 16 0
d 102 96 89 46 85 37 39 30 2 4 6 8 10 12 14 16 0
d 103 16 14 12 10 8 6 4 2 30 1 39 29 37 85 89 36 96 46 0
d 105 96 0
d 106 96 89 46 0
d 107 104 96 89 46 0
d 108 96 89 85 37 39 30 2 4 6 8 10 12 14 16 0
d 109 104 96 89 85 37 39 30 2 4 6 8 10 12 14 16 0
d 110 104 96 89 46 85 37 39 30 2 4 6 8 10 12 14 16 0
d 111 16 14 12 10 8 6 4 2 30 1 39 29 37 85 89 36 96 46 104 0
d 113 104 0
d 114 104 96 89 46 0
d 115 112 104 96 89 46 0
d 116 104 96 89 85 37 39 30 2 4 6 8 10 12 14 16 0
d 117 112 104 96 89 85 37 39 30 2 4 6 8 10 12 14 16 0
d 118 112 104 96 89 46 85 37 39 30 2 4 6 8 10 12 14 16 0
d 119 16 14 12 10 8 6 4 2 30 1 39 29 37 85 89 36 96 46 104 112 0
d 121 112 104 96 89 46 0
d 122 112 104 96 89 46 0
d 123 120 112 104 96 89 46 0
d 124 112 0
d 125 112 104 96 89 85 37 39 30 2 4 6 8 10 12 14 16 0
d 126 120 112 104 96 89 85 37 39 30 2 4 6 8 10 12 14 16 0
d 127 120 112 104 96 89 46 85 37 39 30 2 4 6 8 10 12 14 16 0
d 128 16 14 12 10 8 6 4 2 30 1 39 29 37 85 89 36 96 46 104 112 120 0
d 129 120 0
d 130 120 112 104 96 89 46 0
d 131 120 112 104 96 89 85 37 39 30 2 4 6 8 10 12 14 16 0
d 132 120 112 104 96 89 46 85 37 39 30 2 4 6 8 10 12 14 16 0
d 133 16 14 12 10 8 6 4 2 30 1 39 29 37 85 89 36 96 46 104 112 120 0
d 134 1 2 4 6 8 10 12 14 16 29 30 36 37 39 46 85 89 96 104 112 120 0
3 2 0
-3 -2 0
5 4 0
-5 -4 0
7 6 0
-7 -6 0
9 8 0
-9 -8 0
11 10 0
-11 -10 0
13 12 0
-13 -12 0
15 14 0
-15 -14 0
17 16 0
-17 -16 0
18 -16 0
18 -17 0
-18 16 17 0
-19 17 0
-19 18 0
19 -17 -18 0
-20 15 0
-20 19 0
20 -15 -19 0
-21 13 0
-21 20 0
21 -13 -20 0
-22 11 0
-22 21 0
22 -11 -21 0
-23 9 0
-23 22 0
23 -9 -22 0
-24 7 0
-24 23 0
24 -7 -23 0
-25 5 0
-25 24 0
25 -5 -24 0
-26 3 0
-26 25 0
26 -3 -25 0
27 -1 -26 0
27 1 26 0
-27 -1 26 0
-27 1 -26 0
28 27 0
-28 -27 0
31 30 0
-31 -30 0
-32 31 0
-32 26 0
32 -31 -26 0
33 -29 -32 0
33 29 32 0
-33 -29 32 0
-33 29 -32 0
34 33 0
-34 -33 0
35 -28 0
35 -34 0
-35 28 34 0
38 37 0
-38 -37 0
40 39 0
-40 -39 0
-41 40 0
-41 32 0
41 -40 -32 0
-42 38 0
-42 41 0
42 -38 -41 0
43 -36 -42 0
43 36 42 0
-43 -36 42 0
-43 36 -42 0
44 43 0
-44 -43 0
45 -35 0
45 -44 0
-45 35 44 0
48 -46 -47 0
48 46 47 0
-48 -46 47 0
-48 46 -47 0
49 48 0
-49 -48 0
50 -45 0
50 -49 0
-50 45 49 0
-51 16 0
-51 18 0
51 -16 -18 0
52 -51 -51 0
52 51 51 0
-52 -51 51 0
-52 51 -51 0
-53 14 0
-53 19 0
53 -14 -19 0
54 -53 -53 0
54 53 53 0
-54 -53 53 0
-54 53 -53 0
-55 52 0
-55 54 0
55 -52 -54 0
-56 12 0
-56 20 0
56 -12 -20 0
57 -56 -56 0
57 56 56 0
-57 -56 56 0
-57 56 -56 0
-58 55 0
-58 57 0
58 -55 -57 0
-59 10 0
-59 21 0
59 -10 -21 0
60 -59 -59 0
60 59 59 0
-60 -59 59 0
-60 59 -59 0
-61 58 0
-61 60 0
61 -58 -60 0
-62 8 0
-62 22 0
62 -8 -22 0
63 -62 -62 0
63 62 62 0
-63 -62 62 0
-63 62 -62 0
-64 61 0
-64 63 0
64 -61 -63 0
-65 6 0
-65 23 0
65 -6 -23 0
66 -65 -65 0
66 65 65 0
-66 -65 65 0
-66 65 -65 0
-67 64 0
-67 66 0
67 -64 -66 0
-68 4 0
-68 24 0
68 -4 -24 0
69 -68 -68 0
69 68 68 0
-69 -68 68 0
-69 68 -68 0
-70 67 0
-70 69 0
70 -67 -69 0
-71 2 0
-71 25 0
71 -2 -25 0
72 -71 -71 0
72 71 71 0
-72 -71 71 0
-72 71 -71 0
-73 70 0
-73 72 0
73 -70 -72 0
-75 30 0
-75 26 0
75 -30 -26 0
76 -74 -75 0
76 74 75 0
-76 -74 75 0
-76 74 -75 0
-77 73 0
-77 76 0
77 -73 -76 0
-79 39 0
-79 32 0
79 -39 -32 0
80 -78 -79 0
80 78 79 0
-80 -78 79 0
-80 78 -79 0
-81 77 0
-81 80 0
81 -77 -80 0
-82 37 0
-82 41 0
82 -37 -41 0
83 -82 -82 0
83 82 82 0
-83 -82 82 0
-83 82 -82 0
-84 81 0
-84 83 0
84 -81 -83 0
-86 85 0
-86 42 0
86 -85 -42 0
87 -86 -86 0
87 86 86 0
-87 -86 86 0
-87 86 -86 0
-88 84 0
-88 87 0
88 -84 -87 0
-90 89 0
-90 47 0
90 -89 -47 0
91 85 0
-91 -85 0
-92 91 0
-92 42 0
92 -91 -42 0
-93 89 0
-93 92 0
93 -89 -92 0
94 -90 -93 0
94 90 93 0
-94 -90 93 0
-94 90 -93 0
-95 88 0
-95 94 0
95 -88 -94 0
-98 96 0
-98 97 0
98 -96 -97 0
99 89 0
-99 -89 0
-100 99 0
-100 92 0
100 -99 -92 0
-101 96 0
-101 100 0
101 -96 -100 0
102 -98 -101 0
102 98 101 0
-102 -98 101 0
-102 98 -101 0
-103 95 0
-103 102 0
103 -95 -102 0
105 96 0
-105 -96 0
-106 105 0
-106 97 0
106 -105 -97 0
-107 104 0
-107 106 0
107 -104 -106 0
-108 105 0
-108 100 0
108 -105 -100 0
-109 104 0
-109 108 0
109 -104 -108 0
110 -107 -109 0
110 107 109 0
-110 -107 109 0
-110 107 -109 0
-111 103 0
-111 110 0
111 -103 -110 0
113 104 0
-113 -104 0
-114 113 0
-114 106 0
114 -113 -106 0
-115 112 0
-115 114 0
115 -112 -114 0
-116 113 0
-116 108 0
116 -113 -108 0
-117 112 0
-117 116 0
117 -112 -116 0
118 -115 -117 0
118 115 117 0
-118 -115 117 0
-118 115 -117 0
-119 111 0
-119 118 0
119 -111 -118 0
121 -112 0
121 -114 0
-121 112 114 0
122 121 0
-122 -121 0
-123 120 0
-123 122 0
123 -120 -122 0
124 112 0
-124 -112 0
-125 124 0
-125 116 0
125 -124 -116 0
-126 120 0
-126 125 0
126 -120 -125 0
127 -123 -126 0
127 123 126 0
-127 -123 126 0
-127 123 -126 0
-128 119 0
-128 127 0
128 -119 -127 0
129 120 0
-129 -120 0
-130 129 0
-130 122 0
130 -129 -122 0
-131 129 0
-131 125 0
131 -129 -125 0
132 -130 -131 0
132 130 131 0
-132 -130 131 0
-132 130 -131 0
-133 128 0
-133 132 0
133 -128 -132 0
134 -50 0
134 -133 0
-134 50 133 0
134 0
